c Reduced graph for GEOM110 generated by Cyril Grelier
p edge 104 598
e 1 2
e 1 6
e 1 10
e 1 12
e 1 17
e 1 19
e 1 20
e 1 28
e 1 36
e 1 44
e 1 48
e 1 61
e 1 64
e 1 72
e 1 73
e 1 84
e 1 99
e 1 100
e 1 102
e 2 6
e 2 10
e 2 12
e 2 17
e 2 19
e 2 20
e 2 21
e 2 28
e 2 36
e 2 44
e 2 64
e 2 72
e 2 73
e 2 84
e 2 99
e 2 100
e 2 102
e 3 5
e 3 8
e 3 18
e 3 22
e 3 23
e 3 27
e 3 39
e 3 45
e 3 49
e 3 57
e 3 58
e 3 59
e 3 80
e 3 82
e 3 92
e 4 13
e 4 18
e 4 25
e 4 41
e 4 43
e 4 45
e 4 56
e 4 58
e 4 59
e 4 62
e 4 77
e 4 79
e 4 80
e 4 97
e 5 22
e 5 23
e 5 26
e 5 39
e 5 45
e 5 49
e 5 50
e 5 58
e 5 68
e 5 71
e 5 82
e 5 88
e 5 92
e 6 7
e 6 17
e 6 20
e 6 30
e 6 31
e 6 35
e 6 36
e 6 44
e 6 48
e 6 61
e 6 72
e 6 94
e 7 8
e 7 27
e 7 30
e 7 31
e 7 35
e 7 47
e 7 57
e 7 72
e 7 81
e 7 82
e 7 92
e 7 94
e 8 23
e 8 27
e 8 30
e 8 31
e 8 35
e 8 57
e 8 59
e 8 81
e 8 82
e 8 92
e 8 94
e 9 11
e 9 14
e 9 15
e 9 46
e 9 51
e 9 54
e 9 67
e 9 76
e 9 78
e 9 95
e 9 101
e 9 103
e 10 12
e 10 36
e 10 48
e 10 61
e 10 64
e 10 75
e 10 84
e 10 86
e 10 99
e 10 102
e 11 14
e 11 24
e 11 33
e 11 46
e 11 52
e 11 54
e 11 67
e 11 76
e 11 95
e 11 96
e 11 103
e 12 36
e 12 48
e 12 61
e 12 64
e 12 75
e 12 84
e 12 99
e 12 102
e 13 25
e 13 41
e 13 43
e 13 45
e 13 50
e 13 58
e 13 62
e 13 77
e 13 79
e 13 97
e 14 15
e 14 46
e 14 51
e 14 54
e 14 67
e 14 78
e 14 95
e 14 101
e 14 103
e 15 46
e 15 54
e 15 61
e 15 78
e 15 86
e 15 95
e 16 29
e 16 34
e 16 53
e 16 74
e 16 93
e 17 19
e 17 20
e 17 21
e 17 28
e 17 32
e 17 37
e 17 44
e 17 72
e 17 73
e 17 84
e 17 99
e 17 100
e 17 104
e 18 27
e 18 35
e 18 47
e 18 56
e 18 57
e 18 58
e 18 59
e 18 60
e 18 65
e 18 80
e 18 81
e 18 87
e 18 92
e 19 20
e 19 21
e 19 28
e 19 32
e 19 37
e 19 42
e 19 44
e 19 70
e 19 72
e 19 73
e 19 100
e 19 104
e 20 21
e 20 35
e 20 37
e 20 44
e 20 47
e 20 72
e 20 73
e 20 99
e 20 100
e 21 28
e 21 32
e 21 37
e 21 42
e 21 44
e 21 70
e 21 73
e 21 100
e 21 104
e 22 23
e 22 26
e 22 39
e 22 45
e 22 49
e 22 50
e 22 58
e 22 68
e 22 71
e 22 88
e 22 92
e 23 27
e 23 39
e 23 49
e 23 51
e 23 82
e 23 88
e 23 92
e 24 33
e 24 46
e 24 52
e 24 55
e 24 76
e 24 89
e 24 90
e 24 91
e 24 96
e 24 98
e 25 41
e 25 43
e 25 62
e 25 77
e 25 79
e 25 97
e 26 39
e 26 45
e 26 50
e 26 68
e 26 71
e 27 31
e 27 35
e 27 47
e 27 57
e 27 58
e 27 59
e 27 60
e 27 81
e 27 82
e 27 92
e 27 94
e 28 32
e 28 44
e 28 64
e 28 84
e 28 99
e 28 100
e 28 102
e 28 104
e 29 34
e 29 38
e 29 40
e 29 53
e 29 63
e 29 66
e 29 74
e 29 83
e 29 85
e 29 93
e 29 101
e 30 31
e 30 35
e 30 36
e 30 48
e 30 61
e 30 72
e 30 78
e 30 94
e 31 35
e 31 57
e 31 61
e 31 81
e 31 82
e 31 94
e 32 37
e 32 44
e 32 70
e 32 73
e 32 100
e 32 104
e 33 46
e 33 52
e 33 55
e 33 89
e 33 91
e 33 96
e 33 98
e 34 53
e 34 74
e 34 93
e 35 47
e 35 57
e 35 60
e 35 65
e 35 72
e 35 73
e 35 81
e 35 87
e 35 94
e 36 48
e 36 61
e 36 64
e 36 75
e 36 84
e 36 86
e 36 99
e 36 102
e 37 42
e 37 44
e 37 69
e 37 70
e 37 73
e 37 100
e 37 104
e 38 40
e 38 53
e 38 63
e 38 66
e 38 67
e 38 74
e 38 83
e 38 85
e 38 93
e 38 101
e 38 103
e 39 49
e 39 50
e 39 51
e 39 68
e 39 82
e 39 88
e 39 92
e 40 51
e 40 63
e 40 66
e 40 74
e 40 83
e 40 85
e 40 88
e 40 93
e 40 101
e 41 43
e 41 45
e 41 62
e 41 77
e 41 79
e 41 97
e 42 47
e 42 60
e 42 65
e 42 69
e 42 73
e 42 87
e 43 62
e 43 77
e 43 79
e 43 97
e 44 72
e 44 73
e 44 99
e 44 100
e 44 104
e 45 50
e 45 58
e 45 59
e 45 62
e 45 71
e 45 77
e 45 80
e 45 92
e 46 52
e 46 54
e 46 67
e 46 76
e 46 78
e 46 89
e 46 95
e 46 96
e 46 103
e 47 57
e 47 60
e 47 65
e 47 69
e 47 72
e 47 73
e 47 81
e 47 87
e 48 61
e 48 64
e 48 75
e 48 84
e 48 86
e 48 99
e 48 102
e 49 50
e 49 51
e 49 58
e 49 68
e 49 82
e 49 88
e 49 92
e 50 58
e 50 62
e 50 68
e 50 71
e 51 63
e 51 83
e 51 88
e 51 101
e 52 55
e 52 76
e 52 89
e 52 91
e 52 96
e 52 98
e 53 63
e 53 66
e 53 74
e 53 83
e 53 85
e 53 93
e 54 78
e 54 86
e 54 90
e 54 95
e 55 89
e 55 90
e 55 91
e 55 96
e 55 98
e 56 59
e 56 65
e 56 80
e 56 97
e 57 59
e 57 60
e 57 65
e 57 81
e 57 82
e 57 87
e 57 92
e 57 94
e 58 59
e 58 62
e 58 80
e 58 82
e 58 92
e 59 60
e 59 80
e 59 81
e 59 82
e 59 92
e 60 65
e 60 69
e 60 72
e 60 73
e 60 81
e 60 87
e 61 75
e 61 78
e 61 86
e 61 102
e 62 71
e 62 77
e 62 79
e 62 97
e 63 66
e 63 74
e 63 83
e 63 85
e 63 88
e 63 93
e 63 101
e 64 75
e 64 84
e 64 99
e 64 102
e 65 69
e 65 81
e 65 87
e 66 74
e 66 83
e 66 85
e 66 93
e 66 101
e 67 76
e 67 85
e 67 101
e 67 103
e 68 83
e 68 88
e 69 73
e 69 87
e 70 100
e 70 104
e 72 73
e 72 81
e 72 87
e 72 94
e 72 100
e 73 87
e 73 100
e 74 83
e 74 85
e 74 93
e 74 101
e 75 84
e 75 86
e 75 90
e 75 99
e 75 102
e 76 95
e 76 96
e 76 103
e 77 79
e 77 97
e 78 86
e 78 95
e 79 97
e 81 82
e 81 87
e 81 94
e 82 92
e 82 94
e 83 85
e 83 88
e 83 93
e 83 101
e 84 99
e 84 102
e 85 93
e 85 101
e 85 103
e 86 90
e 86 95
e 86 98
e 89 90
e 89 91
e 89 96
e 89 98
e 90 91
e 90 98
e 91 96
e 91 98
e 95 96
e 95 103
e 99 102
e 100 104
e 101 103
